
  32    1
  10

   0   0   5 2 3 4 5 8 
   4   1   3 9 7 6 
   3   1   2 7 6 
   2   2   2 7 6 
   6   1   3 12 10 7 
  10   2   3 12 11 10 
   2   3   2 14 11 
   4   1   2 14 11 
   3   1   2 14 13 
   1   1   3 17 16 14 
   8   2   2 18 13 
   2   3   5 19 18 17 16 15 
   2   3   4 19 17 16 15 
   3   3   4 26 19 18 15 
   6   1   4 27 22 21 20 
   6   4   5 31 30 27 26 22 
   6   2   4 26 24 23 21 
   9   3   4 31 30 25 22 
   2   2   3 24 23 21 
   8   1   4 31 30 25 23 
   8   3   3 31 30 25 
   2   4   2 24 23 
   5   1   2 29 28 
  10   3   1 28 
   8   2   1 28 
   4   1   1 28 
   8   1   1 28 
   1   1   1 32
   4   1   1 32
   7   4   1 32
   3   2   1 32
   0   0   0 
